&CONTROL
  calculation='bands',
  outdir='.',
  prefix='basic',
  pseudo_dir='.',
  verbosity='low',
  tprnfor=.true.,
  tstress=.true.,
/

&SYSTEM
  nbnd = 10
  ibrav = 0
  A =    5.43070
  nat = 2
  ntyp = 1
  ecutwfc=50,
  ecutrho=200,
  input_dft='pbe',
  occupations='smearing',
  smearing='mv',
  degauss=0.005d0,
/

&ELECTRONS
  conv_thr=1d-08,
  mixing_beta=0.7d0,
/

CELL_PARAMETERS {alat}
  0.500000000000000   0.500000000000000   0.000000000000000 
  0.500000000000000   0.000000000000000   0.500000000000000 
  0.000000000000000   0.500000000000000   0.500000000000000 

ATOMIC_SPECIES
  Si   28.08500  Si.pbe-n-kjpaw_psl.1.0.0.UPF

ATOMIC_POSITIONS {crystal}
Si   0.000000000000000   0.000000000000000   0.000000000000000 
Si   0.250000000000000   0.250000000000000   0.250000000000000 

! let's test that it can format these bands properly
K_POINTS {crystal_b}
11
0.00      0.00 0.00  30 !G
0.50  0.00  0.50  30 !X
0.50 0.25  0.75      30 !W
0.375 0.375 0.74  30 !K
0.00  0.00  0.00  30 !G
0.50  0.50  0.50  30 !L
0.625 0.25    0.625 30 !U
0.50  0.25  0.75  30 !W
0.50  0.50  0.50  30 !L
0.375 0.375 0.74  30 !K|U
0.50 0.00 0.50      30 !X

